10J3M/DAT/10J3MUTL-3.dat
10 3
32.3864 32.3864
45.8859 45.8859
8.3261 8.3261
17.9896 17.9896
0.5447 0.5447
26.2481 26.2481
23.5796 23.5796
44.312 44.312
12.7555 12.7555
46.9837 46.9837
64.7529