10J3M/SOL/10J3MUTL-3.sol
solution status: optimal solution found
objective value:                              53.0222
x#1#1                                               1 	(obj:0)
x#3#1                                               1 	(obj:0)
x#4#3                                               1 	(obj:0)
x#5#2                               0.795310914314534 	(obj:0)
x#5#3                               0.204689085685465 	(obj:0)
x#6#1                               0.376364861032331 	(obj:0)
x#6#2                               0.623635138967669 	(obj:0)
x#8#3                                               1 	(obj:0)
x#9#1                                               1 	(obj:0)
x#10#1                              0.549816088277641 	(obj:0)
z                                             53.0222 	(obj:1)
